c WARNING: for repeatability, setting FPU to use double precision
d VARIABLES            228582       
d CONSTRAINTS          990521       
c ============================[ Problem Statistics ]=============================
c |                                                                             |
c |  Number of variables:        228582                                         |
c |  Number of clauses:          990521                                         |
c |  Parse time:                   0.14 s                                       |
c |                                                                             |
c ============================[ Search Statistics ]==============================
c | Conflicts |          ORIGINAL         |          LEARNT          | Progress |
c |           |    Vars  Clauses Literals |    Limit  Clauses Lit/Cl |          |
c ===============================================================================
c |       100 |  187521   883703  2144377 |   324024      100     11 | 17.963 % |
c |       250 |  187521   883703  2144377 |   356426      250     10 | 17.963 % |
c |       475 |  187520   883703  2144377 |   392069      474     33 | 17.964 % |
c |       812 |  187520   883688  2144339 |   431276      805     35 | 17.964 % |
c |      1318 |  187520   883688  2144339 |   474404     1311     70 | 17.964 % |
c |      2077 |  187519   883673  2144301 |   521844     2067     82 | 17.964 % |
c |      3216 |  187519   883673  2144301 |   574029     3206     93 | 17.964 % |
c |      4924 |  187509   883603  2144127 |   631431     4897     86 | 17.969 % |
c |      7486 |  187500   883513  2143899 |   694575     7430    105 | 17.973 % |
c |     11330 |  187462   883113  2142888 |   764032    11129    101 | 17.989 % |
c ===============================================================================
c restarts              : 56
c conflicts             : 12787          (2275 /sec)
c decisions             : 161457         (0.00 % random) (28727 /sec)
c propagations          : 30897437       (5497421 /sec)
c conflict literals     : 1158258        (11.42 % deleted)
d RESTARTS             56
d FAILURES             12787        
d NODES                161457       
d BACKTRACKS           161457       
d PROPAGATIONS         30897437     
d NOGOODSIZE           90.58 
d MEMORY               83.00 
d TIME                 5.62035 

s UNSATISFIABLE
